n_machines = 3;
n_resources = 6;
n_jobs = 79;
horizon = 401;
LB = 133;
n_jobs_per_resource = [17, 16, 9, 16, 12, 9];
duration = [5, 8, 5, 8, 3, 2, 5, 6, 8, 2, 8, 4, 5, 9, 3, 9, 4, 7, 6, 4, 7, 2, 7, 3, 7, 9, 8, 1, 4, 8, 4, 4, 8, 8, 5, 7, 9, 7, 3, 2, 4, 9, 3, 8, 4, 1, 1, 7, 1, 3, 6, 5, 2, 3, 3, 4, 1, 8, 2, 4, 3, 2, 7, 3, 2, 5, 2, 9, 7, 3, 1, 8, 8, 1, 8, 8, 4, 9, 8]